decision_x1=[0,4];
decision_x2=[0,4];
decision_x3=[0,4];
decision_x4=[0,4];
decision_x5=[0,4];
random_y1=[0,4];
constraint_x2_x1=[
0,1,2.1|
0,2,6.6|
0,3,1.3|
0,4,0.32|
1,0,3.9|
1,2,2.8|
1,3,9|
1,4,5|
2,0,8.8|
2,1,5.8|
2,3,1.2|
2,4,4.4|
3,0,3.6|
3,1,9.8|
3,2,0.69|
3,4,0.059|
4,0,6.8|
4,1,0.043|
4,2,2.1|
4,3,2.7|
];
constraint_x3_x1=[
0,1,0.21|
0,2,5.4|
0,3,5.2|
0,4,4.1|
1,0,9.3|
1,2,5.1|
1,3,3.1|
1,4,3.9|
2,0,9.4|
2,1,7.8|
2,3,4.6|
2,4,3.2|
3,0,9.4|
3,1,8.3|
3,2,3.9|
3,4,0.56|
4,0,5.5|
4,1,7.1|
4,2,5.8|
4,3,1.8|
];
constraint_x4_x1=[
0,1,3.8|
0,2,0.98|
0,3,4.5|
0,4,6.1|
1,0,2.9|
1,2,4.9|
1,3,5.8|
1,4,4.3|
2,0,0.17|
2,1,5|
2,3,1.8|
2,4,2|
3,0,6.9|
3,1,6.2|
3,2,5.8|
3,4,7.2|
4,0,2.6|
4,1,5.1|
4,2,3.6|
4,3,5.9|
];
constraint_x4_x2=[
0,1,9.9|
0,2,4.9|
0,3,5.3|
0,4,3.6|
1,0,4.1|
1,2,3.5|
1,3,2.4|
1,4,2.3|
2,0,9.4|
2,1,9.2|
2,3,6.8|
2,4,8.7|
3,0,9.8|
3,1,0.88|
3,2,3.5|
3,4,9|
4,0,7|
4,1,0.18|
4,2,0.082|
4,3,2.1|
];
constraint_x5_x2=[
0,1,4.6|
0,2,8.8|
0,3,0.49|
0,4,4.1|
1,0,8.6|
1,2,6.8|
1,3,8|
1,4,7.7|
2,0,1.6|
2,1,9.7|
2,3,8.2|
2,4,5.1|
3,0,9.1|
3,1,9.1|
3,2,0.87|
3,4,4.9|
4,0,8.9|
4,1,0.79|
4,2,2.1|
4,3,8.1|
];
constraint_x1_y1=[
0,0,4|
0,1,0.42|
0,2,4.5|
0,3,1.7|
0,4,2.2|
1,0,4.8|
1,1,3.5|
1,2,3.7|
1,3,9.7|
1,4,9.6|
2,0,9.2|
2,1,8.7|
2,2,4.2|
2,3,6.9|
2,4,0.38|
3,0,8.8|
3,1,7.9|
3,2,3.4|
3,3,4.1|
3,4,6.7|
4,0,8.4|
4,1,8.9|
4,2,7.5|
4,3,3.4|
4,4,4.7|
];
initial_distribution_y1=[0.31,0.13,0.27,0.23,0.06];
transition_y1=[
0.22,0.14,0.14,0.33,0.17|
0.0093,0.17,0.17,0.11,0.53|
0.22,0.11,0.087,0.26,0.32|
0.053,0.28,0.15,0.38,0.14|
0.0048,0.24,0.26,0.045,0.45|
];
